NAME (null)_copy
ROWS
 N  OBJ
 L  ROW00001
 L  ROW00002
 L  ROW00011
 L  ROW00012
 L  ROW00013
 L  ROW00022
 L  ROW00023
 L  ROW00024
 E  ROW00027
 E  ROW00028
 E  ROW00029
 L  ROW00033
 L  ROW00034
 L  ROW00035
 L  ROW00044
 L  ROW00045
 L  ROW00046
 E  ROW00049
 E  ROW00050
 E  ROW00051
 L  ROW00055
 L  ROW00056
 L  ROW00057
 L  ROW00066
 L  ROW00067
 L  ROW00068
 E  ROW00071
 E  ROW00072
 E  ROW00073
 L  ROW00077
 L  ROW00078
 L  ROW00079
 L  ROW00088
 L  ROW00089
 L  ROW00090
 E  ROW00093
 E  ROW00094
 E  ROW00095
 L  ROW00099
 L  ROW00100
 L  ROW00101
 L  ROW00111
 L  ROW00112
 L  ROW00113
 E  ROW00116
 E  ROW00117
 E  ROW00118
 L  ROW00122
 L  ROW00123
 L  ROW00124
 L  ROW00133
 L  ROW00134
 L  ROW00135
 E  ROW00138
 E  ROW00139
 E  ROW00140
 L  ROW00144
 L  ROW00145
 L  ROW00146
 L  ROW00155
 L  ROW00156
 L  ROW00157
 E  ROW00160
 E  ROW00161
 E  ROW00162
 L  ROW00166
 L  ROW00167
 L  ROW00168
 L  ROW00177
 L  ROW00178
 L  ROW00179
 E  ROW00182
 E  ROW00183
 E  ROW00184
 L  ROW00188
 L  ROW00189
 L  ROW00190
 L  ROW00199
 L  ROW00200
 L  ROW00201
 E  ROW00203
 L  ROW00204
 L  ROW00205
COLUMNS
    COL00006  ROW00027  -1
    COL00006  ROW00022  -1
    COL00006  ROW00002  1
    COL00006  ROW00001  2
    COL00006  ROW00011  -1
    COL00007  ROW00028  -1
    COL00007  ROW00023  -1
    COL00007  ROW00002  2
    COL00007  ROW00001  1
    COL00007  ROW00012  -1
    COL00008  ROW00029  -1
    COL00008  ROW00024  -1
    COL00008  ROW00002  1.5
    COL00008  ROW00001  1.5
    COL00008  ROW00013  -1
    COL00012  ROW00027  -1
    COL00012  ROW00022  -1
    COL00012  ROW00011  2
    COL00012  ROW00012  1
    COL00013  ROW00028  -1
    COL00013  ROW00023  -1
    COL00013  ROW00011  1
    COL00013  ROW00012  2
    COL00014  ROW00029  -1
    COL00014  ROW00024  -1
    COL00014  ROW00011  1.5
    COL00014  ROW00012  1.5
    COL00023  ROW00022  2
    COL00023  ROW00023  1
    COL00023  ROW00027  -1
    COL00024  ROW00022  1
    COL00024  ROW00023  2
    COL00024  ROW00028  -1
    COL00025  ROW00022  1.5
    COL00025  ROW00023  1.5
    COL00025  ROW00029  -1
    COL00028  ROW00049  -1
    COL00028  ROW00044  -1
    COL00028  ROW00033  -1
    COL00028  ROW00027  1
    COL00029  ROW00050  -1
    COL00029  ROW00045  -1
    COL00029  ROW00034  -1
    COL00029  ROW00028  1
    COL00030  ROW00051  -1
    COL00030  ROW00046  -1
    COL00030  ROW00035  -1
    COL00030  ROW00029  1
    COL00034  ROW00049  -1
    COL00034  ROW00044  -1
    COL00034  ROW00033  2
    COL00034  ROW00034  1
    COL00035  ROW00050  -1
    COL00035  ROW00045  -1
    COL00035  ROW00033  1
    COL00035  ROW00034  2
    COL00036  ROW00051  -1
    COL00036  ROW00046  -1
    COL00036  ROW00033  1.5
    COL00036  ROW00034  1.5
    COL00045  ROW00044  2
    COL00045  ROW00045  1
    COL00045  ROW00049  -1
    COL00046  ROW00044  1
    COL00046  ROW00045  2
    COL00046  ROW00050  -1
    COL00047  ROW00044  1.5
    COL00047  ROW00045  1.5
    COL00047  ROW00051  -1
    COL00050  ROW00071  -1
    COL00050  ROW00066  -1
    COL00050  ROW00055  -1
    COL00050  ROW00049  1
    COL00051  ROW00072  -1
    COL00051  ROW00067  -1
    COL00051  ROW00056  -1
    COL00051  ROW00050  1
    COL00052  ROW00073  -1
    COL00052  ROW00068  -1
    COL00052  ROW00057  -1
    COL00052  ROW00051  1
    COL00056  ROW00071  -1
    COL00056  ROW00066  -1
    COL00056  ROW00055  2
    COL00056  ROW00056  1
    COL00057  ROW00072  -1
    COL00057  ROW00067  -1
    COL00057  ROW00055  1
    COL00057  ROW00056  2
    COL00058  ROW00073  -1
    COL00058  ROW00068  -1
    COL00058  ROW00055  1.5
    COL00058  ROW00056  1.5
    COL00067  ROW00066  2
    COL00067  ROW00067  1
    COL00067  ROW00071  -1
    COL00068  ROW00066  1
    COL00068  ROW00067  2
    COL00068  ROW00072  -1
    COL00069  ROW00066  1.5
    COL00069  ROW00067  1.5
    COL00069  ROW00073  -1
    COL00072  ROW00093  -1
    COL00072  ROW00088  -1
    COL00072  ROW00077  -1
    COL00072  ROW00071  1
    COL00073  ROW00094  -1
    COL00073  ROW00089  -1
    COL00073  ROW00078  -1
    COL00073  ROW00072  1
    COL00074  ROW00095  -1
    COL00074  ROW00090  -1
    COL00074  ROW00079  -1
    COL00074  ROW00073  1
    COL00078  ROW00093  -1
    COL00078  ROW00088  -1
    COL00078  ROW00077  2
    COL00078  ROW00078  1
    COL00079  ROW00094  -1
    COL00079  ROW00089  -1
    COL00079  ROW00077  1
    COL00079  ROW00078  2
    COL00080  ROW00095  -1
    COL00080  ROW00090  -1
    COL00080  ROW00077  1.5
    COL00080  ROW00078  1.5
    COL00089  ROW00088  2
    COL00089  ROW00089  1
    COL00089  ROW00093  -1
    COL00090  ROW00088  1
    COL00090  ROW00089  2
    COL00090  ROW00094  -1
    COL00091  ROW00088  1.5
    COL00091  ROW00089  1.5
    COL00091  ROW00095  -1
    COL00094  ROW00116  -1
    COL00094  ROW00111  -1
    COL00094  ROW00099  -1
    COL00094  ROW00093  1
    COL00095  ROW00117  -1
    COL00095  ROW00112  -1
    COL00095  ROW00100  -1
    COL00095  ROW00094  1
    COL00096  ROW00118  -1
    COL00096  ROW00113  -1
    COL00096  ROW00101  -1
    COL00096  ROW00095  1
    COL00100  ROW00116  -1
    COL00100  ROW00111  -1
    COL00100  ROW00099  2
    COL00100  ROW00100  1
    COL00101  ROW00117  -1
    COL00101  ROW00112  -1
    COL00101  ROW00099  1
    COL00101  ROW00100  2
    COL00102  ROW00118  -1
    COL00102  ROW00113  -1
    COL00102  ROW00099  1.5
    COL00102  ROW00100  1.5
    COL00112  ROW00111  2
    COL00112  ROW00112  1
    COL00112  ROW00116  -1
    COL00113  ROW00111  1
    COL00113  ROW00112  2
    COL00113  ROW00117  -1
    COL00114  ROW00111  1.5
    COL00114  ROW00112  1.5
    COL00114  ROW00118  -1
    COL00117  ROW00138  -1
    COL00117  ROW00133  -1
    COL00117  ROW00122  -1
    COL00117  ROW00116  1
    COL00118  ROW00139  -1
    COL00118  ROW00134  -1
    COL00118  ROW00123  -1
    COL00118  ROW00117  1
    COL00119  ROW00140  -1
    COL00119  ROW00135  -1
    COL00119  ROW00124  -1
    COL00119  ROW00118  1
    COL00123  ROW00138  -1
    COL00123  ROW00133  -1
    COL00123  ROW00122  2
    COL00123  ROW00123  1
    COL00124  ROW00139  -1
    COL00124  ROW00134  -1
    COL00124  ROW00122  1
    COL00124  ROW00123  2
    COL00125  ROW00140  -1
    COL00125  ROW00135  -1
    COL00125  ROW00122  1.5
    COL00125  ROW00123  1.5
    COL00134  ROW00133  2
    COL00134  ROW00134  1
    COL00134  ROW00138  -1
    COL00135  ROW00133  1
    COL00135  ROW00134  2
    COL00135  ROW00139  -1
    COL00136  ROW00133  1.5
    COL00136  ROW00134  1.5
    COL00136  ROW00140  -1
    COL00139  ROW00160  -1
    COL00139  ROW00155  -1
    COL00139  ROW00144  -1
    COL00139  ROW00138  1
    COL00140  ROW00161  -1
    COL00140  ROW00156  -1
    COL00140  ROW00145  -1
    COL00140  ROW00139  1
    COL00141  ROW00162  -1
    COL00141  ROW00157  -1
    COL00141  ROW00146  -1
    COL00141  ROW00140  1
    COL00145  ROW00160  -1
    COL00145  ROW00155  -1
    COL00145  ROW00144  2
    COL00145  ROW00145  1
    COL00146  ROW00161  -1
    COL00146  ROW00156  -1
    COL00146  ROW00144  1
    COL00146  ROW00145  2
    COL00147  ROW00162  -1
    COL00147  ROW00157  -1
    COL00147  ROW00144  1.5
    COL00147  ROW00145  1.5
    COL00156  ROW00155  2
    COL00156  ROW00156  1
    COL00156  ROW00160  -1
    COL00157  ROW00155  1
    COL00157  ROW00156  2
    COL00157  ROW00161  -1
    COL00158  ROW00155  1.5
    COL00158  ROW00156  1.5
    COL00158  ROW00162  -1
    COL00161  ROW00182  -1
    COL00161  ROW00177  -1
    COL00161  ROW00166  -1
    COL00161  ROW00160  1
    COL00162  ROW00183  -1
    COL00162  ROW00178  -1
    COL00162  ROW00167  -1
    COL00162  ROW00161  1
    COL00163  ROW00184  -1
    COL00163  ROW00179  -1
    COL00163  ROW00168  -1
    COL00163  ROW00162  1
    COL00167  ROW00182  -1
    COL00167  ROW00177  -1
    COL00167  ROW00166  2
    COL00167  ROW00167  1
    COL00168  ROW00183  -1
    COL00168  ROW00178  -1
    COL00168  ROW00166  1
    COL00168  ROW00167  2
    COL00169  ROW00184  -1
    COL00169  ROW00179  -1
    COL00169  ROW00166  1.5
    COL00169  ROW00167  1.5
    COL00178  ROW00177  2
    COL00178  ROW00178  1
    COL00178  ROW00182  -1
    COL00179  ROW00177  1
    COL00179  ROW00178  2
    COL00179  ROW00183  -1
    COL00180  ROW00177  1.5
    COL00180  ROW00178  1.5
    COL00180  ROW00184  -1
    COL00182  OBJ       -2.4664134392632278e-02
    COL00182  ROW00179  8.8666896873397061e-01
    COL00182  ROW00157  6.8997874918135760e-01
    COL00182  ROW00135  5.2742484872465256e-01
    COL00182  ROW00113  3.9308278223150805e-01
    COL00182  ROW00090  2.8205628099750429e-01
    COL00182  ROW00068  1.9029884196113753e-01
    COL00182  ROW00205  1.3713054783189560e-01
    COL00182  ROW00013  2.4664134392632278e-02
    COL00182  ROW00024  5.1794682224527780e-02
    COL00182  ROW00035  8.1638284839612843e-02
    COL00182  ROW00046  1.1446624771620638e-01
    COL00182  ROW00057  1.5057700688045936e-01
    COL00182  ROW00079  2.3399286054988358e-01
    COL00182  ROW00101  0.334926043489887
    COL00182  ROW00124  4.5705519484729129e-01
    COL00182  ROW00146  6.0483146798975018e-01
    COL00182  ROW00168  7.8364075849212567e-01
    COL00182  ROW00201  1.1246641343926325e+00
    COL00182  ROW00190  1
    COL00183  ROW00199  -1
    COL00183  ROW00188  -1
    COL00183  ROW00182  1
    COL00184  ROW00200  -1
    COL00184  ROW00189  -1
    COL00184  ROW00183  1
    COL00185  ROW00201  -1
    COL00185  ROW00190  -1
    COL00185  ROW00184  1
    COL00189  ROW00199  -1
    COL00189  ROW00188  2
    COL00189  ROW00189  1
    COL00190  ROW00200  -1
    COL00190  ROW00188  1
    COL00190  ROW00189  2
    COL00191  ROW00201  -1
    COL00191  ROW00188  1.5
    COL00191  ROW00189  1.5
    COL00200  ROW00199  2
    COL00200  ROW00200  1
    COL00200  ROW00203  -0.8
    COL00200  ROW00204  0.1
    COL00201  ROW00199  1
    COL00201  ROW00200  2
    COL00201  ROW00203  0.1
    COL00201  ROW00204  -0.8
    COL00202  ROW00199  1.5
    COL00202  ROW00200  1.5
    COL00202  ROW00203  0.15
    COL00202  ROW00204  0.15
    COL00202  ROW00205  -1
RHS
    RHS1      ROW00001  200
    RHS1      ROW00002  100
    RHS1      ROW00011  200
    RHS1      ROW00012  100
    RHS1      ROW00022  200
    RHS1      ROW00023  100
    RHS1      ROW00033  200
    RHS1      ROW00034  100
    RHS1      ROW00044  200
    RHS1      ROW00045  100
    RHS1      ROW00055  200
    RHS1      ROW00056  100
    RHS1      ROW00066  200
    RHS1      ROW00067  100
    RHS1      ROW00077  200
    RHS1      ROW00078  100
    RHS1      ROW00088  200
    RHS1      ROW00089  100
    RHS1      ROW00099  200
    RHS1      ROW00100  100
    RHS1      ROW00111  200
    RHS1      ROW00112  100
    RHS1      ROW00122  200
    RHS1      ROW00123  100
    RHS1      ROW00133  200
    RHS1      ROW00134  100
    RHS1      ROW00144  200
    RHS1      ROW00145  100
    RHS1      ROW00155  200
    RHS1      ROW00156  100
    RHS1      ROW00166  200
    RHS1      ROW00167  100
    RHS1      ROW00177  200
    RHS1      ROW00178  100
    RHS1      ROW00188  200
    RHS1      ROW00189  100
    RHS1      ROW00199  200
    RHS1      ROW00200  100
BOUNDS
 UP BND1      COL00006  100.101
 UP BND1      COL00007  50.051
 UP BND1      COL00008  6.6734333333333339e+01
 UP BND1      COL00012  150.151
 UP BND1      COL00013  75.076
 UP BND1      COL00014  100.101
 UP BND1      COL00023  225.226
 UP BND1      COL00024  112.6135
 UP BND1      COL00025  150.151
 UP BND1      COL00028  475.476
 UP BND1      COL00029  237.7385
 UP BND1      COL00030  3.1698433333333332e+02
 UP BND1      COL00034  337.8385
 UP BND1      COL00035  168.91975
 UP BND1      COL00036  225.226
 UP BND1      COL00045  506.75725
 UP BND1      COL00046  253.379125
 UP BND1      COL00047  337.8385
 UP BND1      COL00050  1320.06975
 UP BND1      COL00051  660.035375
 UP BND1      COL00052  8.8004683333333344e+02
 UP BND1      COL00056  760.135375
 UP BND1      COL00057  380.0681875
 UP BND1      COL00058  506.75725
 UP BND1      COL00067  1140.2025625
 UP BND1      COL00068  570.10178125
 UP BND1      COL00069  760.135375
 UP BND1      COL00072  3220.4056875
 UP BND1      COL00073  1610.20334375
 UP BND1      COL00074  2.1469374583333338e+03
 UP BND1      COL00078  1710.30334375
 UP BND1      COL00079  855.152171875
 UP BND1      COL00080  1140.2025625
 UP BND1      COL00089  2565.454515625
 UP BND1      COL00090  1282.7277578125
 UP BND1      COL00091  1710.30334375
 UP BND1      COL00094  7496.161546875
 UP BND1      COL00095  3748.0812734375
 UP BND1      COL00096  4.9974413645833338e+03
 UP BND1      COL00100  3848.1812734375
 UP BND1      COL00101  1924.09113671875
 UP BND1      COL00102  2565.454515625
 UP BND1      COL00112  5772.27141015625
 UP BND1      COL00113  2.8861362050781249e+03
 UP BND1      COL00114  3848.1812734375
 UP BND1      COL00117  1.7116612230468749e+04
 UP BND1      COL00118  8.5583066152343745e+03
 UP BND1      COL00119  1.1411075153645834e+04
 UP BND1      COL00123  8.6584066152343748e+03
 UP BND1      COL00124  4.3292038076171875e+03
 UP BND1      COL00125  5772.27141015625
 UP BND1      COL00134  1.2987609422851563e+04
 UP BND1      COL00135  6.4938052114257816e+03
 UP BND1      COL00136  8.6584066152343748e+03
 UP BND1      COL00139  3.8762626268554690e+04
 UP BND1      COL00140  1.9381313634277343e+04
 UP BND1      COL00141  2.5841751179036459e+04
 UP BND1      COL00145  1.9481413634277345e+04
 UP BND1      COL00146  9.7407073171386710e+03
 UP BND1      COL00147  1.2987609422851563e+04
 UP BND1      COL00156  2.9222119951416014e+04
 UP BND1      COL00157  1.4611060475708007e+04
 UP BND1      COL00158  1.9481413634277345e+04
 UP BND1      COL00161  8.7466157854248042e+04
 UP BND1      COL00162  4.3733079427124023e+04
 UP BND1      COL00163  5.8310772236165372e+04
 UP BND1      COL00167  4.3833179427124021e+04
 UP BND1      COL00168  2.1916590213562013e+04
 UP BND1      COL00169  2.9222119951416014e+04
 UP BND1      COL00178  6.5749768640686030e+04
 UP BND1      COL00179  3.2874884820343017e+04
 UP BND1      COL00180  4.3833179427124021e+04
 UP BND1      COL00182  2705.68417018529
 UP BND1      COL00183  1.9704910392205810e+05
 UP BND1      COL00184  9.8524552461029059e+04
 UP BND1      COL00185  1.3136606961470543e+05
 UP BND1      COL00189  9.8624652461029051e+04
 UP BND1      COL00190  4.9312326730514527e+04
 UP BND1      COL00191  6.5749768640686030e+04
 LO BND1      COL00200  -0.001
 UP BND1      COL00200  2.7738184411101916e+04
 UP BND1      COL00201  7.3968490096271780e+04
 UP BND1      COL00202  9.8624653128362377e+04
ENDATA
